c description: Random 3-CNF over 15 variables and 45 clauses
c generator: CNFgen (0.9.0)
c copyright: (C) 2012-2020 Massimo Lauria <massimo.lauria@uniroma1.it>
c url: https://massimolauria.net/cnfgen
c
p cnf 15 45
-1 -6 -13 0
-2 -3 -12 0
-3 5 -15 0
-5 10 -13 0
-3 -9 -12 0
-9 -13 14 0
2 -4 -12 0
9 11 13 0
-2 6 -9 0
8 -12 14 0
2 4 -14 0
-4 5 13 0
6 -9 -15 0
4 -9 13 0
3 -9 13 0
-4 5 10 0
-1 -6 11 0
-1 -3 -11 0
-3 -7 -10 0
-4 8 -14 0
-10 -13 15 0
5 11 -12 0
-9 -10 -13 0
7 -11 14 0
1 9 12 0
-6 10 -15 0
-10 13 15 0
-5 -7 12 0
1 -5 -11 0
4 11 15 0
1 -3 12 0
-2 -11 -15 0
-4 -5 11 0
6 -9 -14 0
-1 -8 -14 0
-3 -7 11 0
2 3 -10 0
1 -4 15 0
-3 8 13 0
-4 -9 -11 0
5 12 -14 0
3 8 9 0
-2 -8 14 0
-5 7 -14 0
-2 -4 5 0